 ! --------------------------------------------------- CP Optimizer 22.1.1.0 --
 ! Satisfiability problem - 39200 variables, 432212 constraints
 ! Presolve      : 24000 extractables eliminated
 ! TimeLimit            = 3600
 ! Workers              = 1
 ! Initial process time : 3.96s (3.95s extraction + 0.02s propagation)
 !  . Log search space  : 402096.2 (before), 402096.2 (after)
 !  . Memory usage      : 291.6 MB (before), 291.6 MB (after)
 ! Using sequential search.
 ! ----------------------------------------------------------------------------
 !               Branches  Non-fixed            Branch decision
                     1122      37762        F          presenceOf(copy_trips:34_12)
                     2070      38575        F          presenceOf(copy_trips:19_0)
                     3000      20055                   presenceOf(copy_lane_parking:5_293)
                     4000      26817            245  = endOf(start_parking:39)
                     5000      13066                  !presenceOf(copy_bus_parking:25_202)
                     6000      13205                   presenceOf(copy_lane_parking:7_265)
                     7000      22095                   presenceOf(copy_trips:18_274)
                     8000      13323                   presenceOf(copy_lane_parking:3_198)
                     9000      26588                   presenceOf(copy_trips:18_7)
                    10000      13330        F          presenceOf(copy_bus_parking:20_202)
                    11000      13330                  !presenceOf(copy_bus_parking:24_8)
                    12000      22904        F         !presenceOf(copy_trips:5_1)
                    13000      17004        F          presenceOf(copy_bus_parking:39_40)
                    14000      17004        F          presenceOf(copy_bus_parking:13_40)
                    15000      17004        F          presenceOf(copy_bus_parking:37_40)
                    16000      17004                   presenceOf(copy_lane_parking:4_178)
                    17000      25709                   presenceOf(copy_trips:8_286)
                    18000      24890        F          presenceOf(copy_bus_parking:2_0)
                    19000      24890                  !presenceOf(copy_bus_parking:28_202)
                    20000      16286        F          presenceOf(copy_bus_parking:17_27)
 ! Time = 28.24s, Average fail depth = 393, Memory usage = 972.6 MB
 !               Branches  Non-fixed            Branch decision
                    21000      16233                   presenceOf(copy_lane_parking:4_6)
                    22000      26582        F          presenceOf(copy_trips:0_26)
                    23000      20775                  !presenceOf(copy_trips:5_28)
                    24000      20777        F         !presenceOf(copy_trips:0_297)
                    25000      24887                   presenceOf(copy_lane_parking:7_71)
                    26000      19612                   presenceOf(copy_lane_parking:7_70)
                    27000      17001        F          presenceOf(copy_bus_parking:2_40)
                    28000      17001                   presenceOf(copy_lane_parking:0_228)
                    29000      13326                   presenceOf(copy_bus_parking:22_201)
                    30000      13326                   presenceOf(copy_lane_parking:7_18)
                    31000      25895        F          presenceOf(copy_bus_parking:8_28)
                    32000      27791                  !presenceOf(copy_bus_parking:11_27)
                    33000      27791                  !presenceOf(copy_bus_parking:28_27)
                    34000      27791        F          presenceOf(copy_bus_parking:5_29)
                    35000      16500                  !presenceOf(copy_bus_parking:34_34)
                    36000      16117                  !presenceOf(copy_bus_parking:23_29)
                    37000      16117                  !presenceOf(copy_bus_parking:30_29)
                    38000      16117        F          presenceOf(copy_bus_parking:31_29)
                    39000      16117                  !presenceOf(copy_bus_parking:19_34)
                    40000      16117                  !presenceOf(copy_bus_parking:15_28)
 ! Time = 51.08s, Average fail depth = 412, Memory usage = 975.8 MB
 !               Branches  Non-fixed            Branch decision
                    41000      16117                  !presenceOf(copy_bus_parking:38_34)
                    42000      16117                  !presenceOf(copy_bus_parking:39_34)
                    43000      16117        F          presenceOf(copy_trips:24_17)
                    44000      16117                  !presenceOf(copy_bus_parking:24_28)
                    45000      16117        F          presenceOf(copy_bus_parking:9_29)
                    46000      16117                  !presenceOf(copy_bus_parking:30_28)
                    47000      16117                  !presenceOf(copy_bus_parking:25_29)
                    48000      16500        F          presenceOf(copy_trips:12_297)
                    49000      24896                  !presenceOf(copy_bus_parking:15_295)
                    50000      24896        F         !presenceOf(copy_trips:12_297)
                    51000      24896                  !presenceOf(copy_bus_parking:37_295)
                    52000      24902        F          presenceOf(copy_trips:0_0)
                    53000      35521        F         !presenceOf(copy_trips:15_0)
                    54000      24899                   presenceOf(copy_bus_parking:0_295)
                    55000      24899        F          presenceOf(copy_bus_parking:33_295)
                    56000      24899        F          presenceOf(copy_bus_parking:18_295)
                    57000      24899                   presenceOf(copy_trips:0_64)
                    58000      24899                  !presenceOf(copy_bus_parking:13_295)
                    59000      23364                  !presenceOf(copy_bus_parking:13_0)
                    60000      22851                   presenceOf(copy_lane_parking:3_49)
 ! Time = 68.49s, Average fail depth = 408, Memory usage = 979.0 MB
 !               Branches  Non-fixed            Branch decision
                    61000      24890                   presenceOf(copy_bus_parking:35_189)
                    62000      13326                   presenceOf(copy_lane_parking:3_73)
                    63000      16111                   presenceOf(copy_lane_parking:5_130)
                    64000      24893                   presenceOf(copy_bus_parking:11_177)
                    65000      13332                  !presenceOf(copy_trips:22_29)
                    66000      16663        F          presenceOf(copy_trips:33_0)
                    67000      34349        F          presenceOf(copy_bus_parking:12_2)
                    68000      27721                   presenceOf(copy_lane_parking:4_59)
                    69000      24899        F          presenceOf(copy_bus_parking:25_34)
                    70000      26483                   presenceOf(copy_trips:23_27)
                    71000      27144                  !presenceOf(copy_bus_parking:26_79)
                    72000      13323        F          presenceOf(copy_bus_parking:5_202)
                    73000      13323        F          presenceOf(copy_bus_parking:7_202)
                    74000      13323        F          presenceOf(copy_bus_parking:2_202)
                    75000      13323        F          presenceOf(copy_bus_parking:34_202)
                    76000      13323                  !presenceOf(copy_trips:28_22)
                    77000      26564                  !presenceOf(copy_bus_parking:22_19)
                    78000      26808                   presenceOf(copy_lane_parking:5_56)
                    79000      24896                   presenceOf(copy_lane_parking:7_278)
                    80000      13329                   presenceOf(copy_lane_parking:7_128)
 ! Time = 91.27s, Average fail depth = 403, Memory usage = 979.6 MB
 !               Branches  Non-fixed            Branch decision
                    81000      24887                  !presenceOf(copy_bus_parking:35_295)
                    82000      24887                  !presenceOf(copy_bus_parking:11_295)
                    83000      24887                  !presenceOf(copy_bus_parking:14_295)
                    84000      24890                  !presenceOf(copy_trips:28_5)
                    85000      18308                  !presenceOf(copy_bus_parking:2_78)
                    86000      18308        F         !presenceOf(copy_bus_parking:37_72)
                    87000      18308                  !presenceOf(copy_bus_parking:37_78)
                    88000      18308                  !presenceOf(copy_bus_parking:38_78)
                    89000      18308        F          presenceOf(copy_bus_parking:37_72)
                    90000      18308                  !presenceOf(copy_bus_parking:18_78)
                    91000      18308        F          presenceOf(copy_bus_parking:37_72)
                    92000      18308                  !presenceOf(copy_bus_parking:11_78)
                    93000      18308                  !presenceOf(copy_bus_parking:24_78)
                    94000      18308                  !presenceOf(copy_bus_parking:14_78)
                    95000      18308        F          presenceOf(copy_bus_parking:37_72)
                    96000      18308                  !presenceOf(copy_bus_parking:4_78)
                    97000      18308        F          presenceOf(copy_bus_parking:37_72)
                    98000      18308        F          presenceOf(copy_trips:15_77)
                    99000      26379                   presenceOf(copy_trips:16_131)
                     100k      16672                  !presenceOf(copy_bus_parking:39_17)
 ! Time = 108.26s, Average fail depth = 410, Memory usage = 979.6 MB
 !               Branches  Non-fixed            Branch decision
                     101k      24878                  !presenceOf(copy_trips:29_0)
                     102k      24896        F          presenceOf(copy_trips:32_295)
                     103k      24887        F         !presenceOf(copy_bus_parking:30_297)
                     104k      24887        F          presenceOf(copy_trips:35_295)
                     105k      24887                   presenceOf(copy_trips:23_295)
                     106k      24890                  !presenceOf(copy_trips:3_1)
                     107k      23254                  !presenceOf(copy_trips:29_9)
                     108k      22780                   presenceOf(copy_lane_parking:6_117)
                     109k      35814                   presenceOf(copy_lane_parking:2_53)
                     110k      26866                   presenceOf(copy_lane_parking:3_274)
                     111k      26685                   presenceOf(copy_lane_parking:4_246)
                     112k      16497                   presenceOf(copy_lane_parking:7_138)
                     113k      24890                  !presenceOf(copy_trips:31_295)
                     114k      24887                   presenceOf(copy_lane_parking:6_148)
                     115k      26508                   presenceOf(copy_lane_parking:3_215)
                     116k      19381        F          presenceOf(copy_bus_parking:6_72)
                     117k      19381        F          presenceOf(copy_bus_parking:33_72)
                     118k      19381        F          presenceOf(copy_bus_parking:12_72)
                     119k      19381                   presenceOf(copy_bus_parking:5_17)
                     120k      32578                   presenceOf(copy_lane_parking:3_154)
 ! Time = 131.10s, Average fail depth = 403, Memory usage = 979.7 MB
 !               Branches  Non-fixed            Branch decision
                     121k      22631                  !presenceOf(copy_trips:33_295)
                     122k      24896        F         !presenceOf(copy_trips:4_0)
                     123k      24896                   presenceOf(copy_lane_parking:5_39)
                     124k      24893                   presenceOf(copy_bus_parking:28_295)
                     125k      24890                  !presenceOf(copy_bus_parking:8_27)
                     126k      26877        F          presenceOf(copy_bus_parking:4_12)
                     127k      13338        F          presenceOf(copy_trips:26_218)
                     128k      13338        F          presenceOf(copy_trips:4_218)
                     129k      13338        F          presenceOf(copy_trips:13_218)
                     130k      13338        F          presenceOf(copy_trips:22_218)
                     131k      13338                   presenceOf(copy_bus_parking:25_295)
                     132k      24890        F         !presenceOf(copy_bus_parking:0_297)
                     133k      24890        F          presenceOf(copy_bus_parking:20_295)
                     134k      24890        F          presenceOf(copy_bus_parking:35_295)
                     135k      24890        F          presenceOf(copy_bus_parking:14_295)
                     136k      24890                   presenceOf(copy_bus_parking:17_295)
                     137k      24890                   presenceOf(copy_trips:32_298)
                     138k      24890        F         !presenceOf(copy_bus_parking:0_297)
                     139k      24890        F          presenceOf(copy_bus_parking:35_295)
                     140k      24890        F         !presenceOf(copy_bus_parking:0_297)
 ! Time = 146.74s, Average fail depth = 403, Memory usage = 979.7 MB
 !               Branches  Non-fixed            Branch decision
                     141k      24890        F         !presenceOf(copy_bus_parking:0_297)
                     142k      24890        F          presenceOf(copy_bus_parking:6_295)
                     143k      24893        F         !presenceOf(copy_bus_parking:0_297)
                     144k      23847                  !presenceOf(copy_bus_parking:19_2)
                     145k      16992        F          presenceOf(copy_trips:34_40)
                     146k      16992        F          presenceOf(copy_trips:12_40)
                     147k      16992        F          presenceOf(copy_trips:16_40)
                     148k      16992                   presenceOf(copy_lane_parking:1_78)
                     149k      13329                   presenceOf(copy_lane_parking:7_48)
                     150k      24902        F          presenceOf(copy_bus_parking:9_295)
                     151k      24902        F         !presenceOf(copy_trips:35_297)
                     152k      24902                   presenceOf(copy_bus_parking:18_295)
                     153k      24902                  !presenceOf(copy_trips:7_202)
                     154k      24902                   presenceOf(copy_bus_parking:25_295)
                     155k      24902                   presenceOf(copy_bus_parking:25_295)
                     156k      24902                   presenceOf(copy_bus_parking:25_295)
                     157k      24902                   presenceOf(copy_bus_parking:22_295)
                     158k      24902        F          presenceOf(copy_bus_parking:39_295)
                     159k      24902                   presenceOf(copy_bus_parking:5_295)
                     160k      24902        F          presenceOf(copy_bus_parking:19_295)
 ! Time = 162.94s, Average fail depth = 405, Memory usage = 979.7 MB
 !               Branches  Non-fixed            Branch decision
                     161k      24902        F          presenceOf(copy_bus_parking:38_295)
                     162k      24902                   presenceOf(copy_lane_parking:3_13)
                     163k      15951                  !presenceOf(copy_trips:29_17)
                     164k      15954                  !presenceOf(copy_trips:12_34)
                     165k      16503                  !presenceOf(copy_trips:22_34)
                     166k      16503                  !presenceOf(copy_bus_parking:20_45)
                     167k      16503                  !presenceOf(copy_trips:6_34)
                     168k      16503                  !presenceOf(copy_trips:29_34)
                     169k      16503        F          presenceOf(copy_bus_parking:2_40)
                     170k      16503                  !presenceOf(copy_trips:21_34)
                     171k      16503                  !presenceOf(copy_trips:19_28)
                     172k      16503                  !presenceOf(copy_trips:2_34)
                     173k      16503                   presenceOf(copy_bus_parking:23_29)
                     174k      16503                  !presenceOf(copy_trips:14_28)
                     175k      16503        F          presenceOf(copy_bus_parking:13_29)
                     176k      16503                  !presenceOf(copy_trips:23_34)
                     177k      16503        F          presenceOf(copy_bus_parking:3_4)
                     178k      23342                  !presenceOf(copy_trips:14_295)
                     179k      24893                  !presenceOf(copy_trips:20_295)
                     180k      24893                  !presenceOf(copy_trips:34_295)
 ! Time = 180.22s, Average fail depth = 411, Memory usage = 979.7 MB
 !               Branches  Non-fixed            Branch decision
                     181k      24893                  !presenceOf(copy_trips:39_295)
                     182k      24893                  !presenceOf(copy_trips:33_295)
                     183k      24893                  !presenceOf(copy_trips:24_295)
                     184k      24893                  !presenceOf(copy_trips:16_295)
                     185k      24893                  !presenceOf(copy_trips:16_295)
                     186k      24893        F          presenceOf(copy_bus_parking:4_297)
                     187k      24893                  !presenceOf(copy_trips:31_295)
                     188k      24893                  !presenceOf(copy_trips:22_295)
                     189k      24893                  !presenceOf(copy_trips:28_295)
                     190k      24893                  !presenceOf(copy_trips:28_295)
                     191k      24893                  !presenceOf(copy_trips:16_295)
                     192k      24893        F          presenceOf(copy_bus_parking:4_297)
                     193k      24893                  !presenceOf(copy_trips:10_295)
                     194k      24893                  !presenceOf(copy_trips:23_295)
                     195k      24893                  !presenceOf(copy_trips:11_295)
                     196k      24893        F          presenceOf(copy_bus_parking:4_297)
                     197k      24893                   presenceOf(copy_trips:23_295)
                     198k      24893                  !presenceOf(copy_trips:3_295)
                     199k      24893                  !presenceOf(copy_trips:39_295)
                     200k      24893                  !presenceOf(copy_trips:32_295)
 ! Time = 194.78s, Average fail depth = 410, Memory usage = 979.7 MB
 !               Branches  Non-fixed            Branch decision
                     201k      24893                  !presenceOf(copy_trips:38_295)
                     202k      24893        F          presenceOf(copy_bus_parking:4_297)
                     203k      24893        F         !presenceOf(copy_bus_parking:4_297)
                     204k      24893                  !presenceOf(copy_trips:17_295)
                     205k      24890        F          presenceOf(copy_bus_parking:4_297)
                     206k      24890                  !presenceOf(copy_trips:21_295)
                     207k      24890                  !presenceOf(copy_trips:24_295)
                     208k      24893                  !presenceOf(copy_trips:7_295)
                     209k      24893        F          presenceOf(copy_bus_parking:4_297)
                     210k      24893        F          presenceOf(copy_bus_parking:4_297)
                     211k      24893                  !presenceOf(copy_trips:18_295)
                     212k      24893        F          presenceOf(copy_bus_parking:4_297)
                     213k      24893        F          presenceOf(copy_bus_parking:4_297)
                     214k      24893        F          presenceOf(copy_trips:34_295)
                     215k      24893                  !presenceOf(copy_trips:3_295)
                     216k      24893        F          presenceOf(copy_bus_parking:4_297)
                     217k      24893                  !presenceOf(copy_trips:34_295)
                     218k      24893        F          presenceOf(copy_bus_parking:4_297)
                     219k      24893                  !presenceOf(copy_trips:32_295)
                     220k      24893                  !presenceOf(copy_trips:31_295)
 ! Time = 209.33s, Average fail depth = 410, Memory usage = 979.7 MB
 !               Branches  Non-fixed            Branch decision
                     221k      24893        F          presenceOf(copy_bus_parking:4_297)
                     222k      24893                  !presenceOf(copy_trips:28_295)
                     223k      24893                  !presenceOf(copy_trips:39_295)
                     224k      24893        F         !presenceOf(copy_bus_parking:4_297)
                     225k      24893        F         !presenceOf(copy_bus_parking:4_297)
                     226k      24893                  !presenceOf(copy_trips:34_295)
                     227k      24893        F          presenceOf(copy_bus_parking:4_297)
                     228k      24893                  !presenceOf(copy_trips:3_295)
                     229k      24893                   presenceOf(copy_lane_parking:5_115)
                     230k      24893                   presenceOf(copy_bus_parking:32_285)
                     231k      24893                  !presenceOf(copy_bus_parking:1_295)
                     232k      24896                   presenceOf(copy_bus_parking:26_62)
                     233k      24899        F          presenceOf(copy_bus_parking:26_297)
                     234k      24899                   presenceOf(copy_trips:17_190)
                     235k      23194        F          presenceOf(copy_bus_parking:36_295)
                     236k      24890        F          presenceOf(copy_bus_parking:19_295)
                     237k      24890        F         !presenceOf(copy_trips:32_297)
                     238k      24890        F         !presenceOf(copy_trips:32_297)
                     239k      24893                   presenceOf(copy_lane_parking:2_27)
                     240k      24872                   presenceOf(copy_trips:1_158)
 ! Time = 227.38s, Average fail depth = 409, Memory usage = 979.7 MB
 !               Branches  Non-fixed            Branch decision
                     241k      23372                  !presenceOf(copy_bus_parking:2_19)
                     242k      26584                   presenceOf(copy_bus_parking:31_155)
                     243k      16666                  !presenceOf(copy_trips:23_28)
                     244k      16500        F          presenceOf(copy_trips:27_34)
                     245k      16500                  !presenceOf(copy_trips:1_28)
                     246k      16500        F          presenceOf(copy_trips:18_34)
                     247k      16500        F          presenceOf(copy_bus_parking:31_0)
                     248k      23334        F         !presenceOf(copy_bus_parking:10_3)
                     249k      22220                  !presenceOf(copy_trips:23_37)
                     250k      20665                   presenceOf(copy_lane_parking:1_170)
                     251k      24893        F          presenceOf(copy_trips:11_12)
                     252k      26400                  !presenceOf(copy_bus_parking:30_37)
                     253k      26601        F          presenceOf(copy_trips:39_12)
                     254k      26596        F          presenceOf(copy_bus_parking:0_5)
                     255k      28459                   presenceOf(copy_lane_parking:6_6)
                     256k      24896                   presenceOf(copy_lane_parking:7_210)
                     257k      24893                  !presenceOf(copy_trips:8_295)
                     258k      24890                   presenceOf(copy_lane_parking:6_81)
                     259k      35292                  !presenceOf(copy_bus_parking:18_1)
                     260k      27778        F          presenceOf(copy_trips:27_17)
 ! Time = 250.52s, Average fail depth = 408, Memory usage = 979.7 MB
 !               Branches  Non-fixed            Branch decision
                     261k      13205        F          presenceOf(copy_trips:20_295)
                     262k      13205                  !presenceOf(copy_bus_parking:33_34)
                     263k      26768        F          presenceOf(copy_bus_parking:16_94)
                     264k      26478                  !presenceOf(copy_bus_parking:3_94)
                     265k      26829        F          presenceOf(copy_trips:9_48)
                     266k      26439                   presenceOf(copy_lane_parking:4_185)
                     267k      13335        F          presenceOf(copy_trips:14_17)
                     268k      20830        F          presenceOf(copy_trips:12_155)
                     269k      20564            245 != endOf(start_parking:37)
                     270k      24893                   presenceOf(copy_trips:7_295)
                     271k      13335                  !presenceOf(copy_bus_parking:22_202)
                     272k      13332                  !presenceOf(copy_bus_parking:2_202)
                     273k      13332                  !presenceOf(copy_bus_parking:12_202)
                     274k      13332                  !presenceOf(copy_bus_parking:35_202)
                     275k      13332        F         !presenceOf(copy_bus_parking:29_202)
                     276k      13332        F          presenceOf(copy_bus_parking:27_202)
                     277k      13332                   presenceOf(copy_bus_parking:2_201)
                     278k      13332        F         !presenceOf(copy_bus_parking:29_202)
                     279k      13332        F          presenceOf(copy_bus_parking:12_202)
                     280k      13332        F         !presenceOf(copy_bus_parking:29_202)
 ! Time = 265.53s, Average fail depth = 410, Memory usage = 984.1 MB
 !               Branches  Non-fixed            Branch decision
                     281k      13332                  !presenceOf(copy_bus_parking:8_202)
                     282k      13332                  !presenceOf(copy_bus_parking:8_202)
                     283k      13332                  !presenceOf(copy_bus_parking:26_202)
                     284k      13332                  !presenceOf(copy_trips:19_42)
                     285k      22508                  !presenceOf(copy_trips:39_119)
                     286k      10263           2500  = startOf(charge:13_139)
                     287k       1156        F          presenceOf(copy_trips:34_291)
 *                   287k  269.15s                   -
 ! ----------------------------------------------------------------------------
 ! Search completed, 1 solution found.
 ! ----------------------------------------------------------------------------
 ! Number of branches     : 287276
 ! Number of fails        : 116866
 ! Total memory usage     : 1.1 GB (1.1 GB CP Optimizer + 0.0 GB Concert)
 ! Time spent in solve    : 269.16s (265.21s engine + 3.95s extraction)
 ! Search speed (br. / s) : 1083.2
 ! ----------------------------------------------------------------------------
